(declare-fun temp6539_1 () (_ BitVec 64))
(declare-fun var139826 () (_ BitVec 64))
(declare-fun var139820 () (_ BitVec 64))
(declare-fun temp6539_2 () (_ BitVec 64))
(declare-fun var75949 () (_ BitVec 64))
(declare-fun k!0 () Bool)
(declare-fun ARGNAME_filter_sizes_NAMEEND_DIM () (_ BitVec 64))
(declare-fun ARGNAME_data_format_NAMEEND_STRFMT () (_ BitVec 64))
(declare-fun temp6539_3 () (_ BitVec 64))
(declare-fun var76022 () (_ BitVec 64))
(declare-fun var76026 () (_ BitVec 64))
(declare-fun temp6539_4 () (_ BitVec 64))
(declare-fun var76027 () (_ BitVec 64))
(declare-fun temp6539_5 () (_ BitVec 64))
(declare-fun temp6539_6 () (_ BitVec 64))
(declare-fun ARGNAME_input_NAMEEND_DIM () (_ BitVec 64))
(declare-fun var76042 () (_ BitVec 64))
(declare-fun temp6539_7 () (_ BitVec 64))
(declare-fun temp6539_8 () (_ BitVec 64))
(declare-fun ARGNAME_out_backprop_NAMEEND_DIM () (_ BitVec 64))
(declare-fun var76103 () (_ BitVec 64))
(declare-fun temp6539_9 () (_ BitVec 64))
(declare-fun temp6539_10 () (_ BitVec 64))
(declare-fun ARGNAME_input_NAMEEND_DIMSIZE
             ()
             (Array (_ BitVec 64) (_ BitVec 64)))
(declare-fun temp6539_11 () (_ BitVec 64))
(declare-fun temp6539_12 () (_ BitVec 64))
(declare-fun temp6539_13 () (_ BitVec 64))
(declare-fun temp6539_14 () (_ BitVec 64))
(declare-fun temp6539_15 () (_ BitVec 64))
(declare-fun temp6539_16 () (_ BitVec 64))
(declare-fun temp6539_17 () (_ BitVec 64))
(declare-fun temp6539_18 () (_ BitVec 64))
(declare-fun temp6539_19 () (_ BitVec 64))
(declare-fun temp6539_20 () (_ BitVec 64))
(declare-fun temp6539_21 () (_ BitVec 64))
(declare-fun temp6539_22 () (_ BitVec 64))
(declare-fun temp6539_23 () (_ BitVec 64))
(declare-fun var76131 () (_ BitVec 64))
(declare-fun temp6539_24 () (_ BitVec 64))
(declare-fun ARGNAME_out_backprop_NAMEEND_DIMSIZE
             ()
             (Array (_ BitVec 64) (_ BitVec 64)))
(declare-fun temp6539_25 () (_ BitVec 64))
(declare-fun temp6539_26 () (_ BitVec 64))
(declare-fun temp6539_27 () (_ BitVec 64))
(declare-fun temp6539_28 () (_ BitVec 64))
(declare-fun temp6539_29 () (_ BitVec 64))
(declare-fun temp6539_30 () (_ BitVec 64))
(declare-fun temp6539_31 () (_ BitVec 64))
(declare-fun temp6539_32 () (_ BitVec 64))
(declare-fun temp6539_33 () (_ BitVec 64))
(declare-fun temp6539_34 () (_ BitVec 64))
(declare-fun temp6539_35 () (_ BitVec 64))
(declare-fun temp6539_36 () (_ BitVec 64))
(declare-fun temp6539_37 () (_ BitVec 64))
(declare-fun var76165 () (_ BitVec 64))
(declare-fun temp6539_38 () (_ BitVec 64))
(declare-fun ARGNAME_input_NAMEEND_NUMELEMENT () (_ BitVec 64))
(declare-fun var76268 () (_ BitVec 64))
(declare-fun temp6539_39 () (_ BitVec 64))
(declare-fun temp6539_40 () (_ BitVec 64))
(declare-fun var341046 () (_ BitVec 64))
(declare-fun temp6539_41 () (_ BitVec 64))
(declare-fun var341064 () (_ BitVec 64))
(declare-fun temp6539_42 () (_ BitVec 64))
(declare-fun temp6539_44 () (_ BitVec 64))
(declare-fun temp6539_43 () (_ BitVec 64))
(declare-fun temp6539_46 () (_ BitVec 64))
(declare-fun temp6539_45 () (_ BitVec 64))
(declare-fun temp6539_47 () (_ BitVec 64))
(declare-fun var472118 () (_ BitVec 64))
(declare-fun temp6539_48 () (_ BitVec 64))
(declare-fun var472136 () (_ BitVec 64))
(declare-fun temp6539_49 () (_ BitVec 64))
(declare-fun temp6539_51 () (_ BitVec 64))
(declare-fun temp6539_50 () (_ BitVec 64))
(declare-fun temp6539_53 () (_ BitVec 64))
(declare-fun temp6539_52 () (_ BitVec 64))
(declare-fun temp6539_54 () (_ BitVec 64))
(declare-fun var603190 () (_ BitVec 64))
(declare-fun temp6539_55 () (_ BitVec 64))
(declare-fun var603208 () (_ BitVec 64))
(declare-fun temp6539_56 () (_ BitVec 64))
(declare-fun temp6539_58 () (_ BitVec 64))
(declare-fun temp6539_57 () (_ BitVec 64))
(declare-fun temp6539_60 () (_ BitVec 64))
(declare-fun temp6539_59 () (_ BitVec 64))
(declare-fun temp6539_62 () (_ BitVec 64))
(declare-fun temp6539_61 () (_ BitVec 64))
(declare-fun temp6539_63 () (_ BitVec 64))
(declare-fun var795723 () (_ BitVec 64))
(declare-fun var795702 () (_ BitVec 64))
(declare-fun var730134 () (_ BitVec 64))
(declare-fun temp6539_64 () (_ BitVec 64))
(declare-fun temp6539_65 () (_ BitVec 64))
(declare-fun var861259 () (_ BitVec 64))
(declare-fun var861238 () (_ BitVec 64))
(declare-fun var730144 () (_ BitVec 64))
(declare-fun temp6539_66 () (_ BitVec 64))
(declare-fun temp6539_67 () (_ BitVec 64))
(declare-fun var926795 () (_ BitVec 64))
(declare-fun var926774 () (_ BitVec 64))
(declare-fun var730147 () (_ BitVec 64))
(declare-fun temp6539_68 () (_ BitVec 64))
(declare-fun temp6539_69 () (_ BitVec 64))
(declare-fun var1123378 () (_ BitVec 64))
(declare-fun temp6539_70 () (_ BitVec 64))
(declare-fun var1188914 () (_ BitVec 64))
(declare-fun temp6539_71 () (_ BitVec 64))
(declare-fun var1254450 () (_ BitVec 64))
(assert (or (= ARGNAME_data_format_NAMEEND_STRFMT #x0000000000000000)
    (= ARGNAME_data_format_NAMEEND_STRFMT #x0000000000000001)
    (= ARGNAME_data_format_NAMEEND_STRFMT #x0000000000000002)
    (= ARGNAME_data_format_NAMEEND_STRFMT #x0000000000000003)
    (= ARGNAME_data_format_NAMEEND_STRFMT #x0000000000000004)
    (= ARGNAME_data_format_NAMEEND_STRFMT #x0000000000000005)))
(assert (= temp6539_1 #x0000000000000001))
(assert (= var139826
   (ite (= ARGNAME_filter_sizes_NAMEEND_DIM temp6539_1)
        #x0000000000000001
        #x0000000000000000)))
(assert (= var139820 var139826))
(assert (= var75949 var139820))
(assert (= temp6539_2 #x0000000000000001))
(assert (= var75949 temp6539_2))
(assert (= temp6539_3 #x0000000000000000))
(assert (= var76022 temp6539_3))
(assert (= var76026 var76022))
(assert (= temp6539_4 #x0000000000000000))
(assert (= var76027 (ite (= var76026 temp6539_4) #x0000000000000001 #x0000000000000000)))
(assert (= temp6539_5 #x0000000000000001))
(assert (= var76027 temp6539_5))
(assert (= temp6539_6 #x0000000000000005))
(assert (= var76042
   (ite (= ARGNAME_input_NAMEEND_DIM temp6539_6)
        #x0000000000000001
        #x0000000000000000)))
(assert (= temp6539_7 #x0000000000000001))
(assert (= var76042 temp6539_7))
(assert (= temp6539_8 #x0000000000000005))
(assert (= var76103
   (ite (= ARGNAME_out_backprop_NAMEEND_DIM temp6539_8)
        #x0000000000000001
        #x0000000000000000)))
(assert (= temp6539_9 #x0000000000000001))
(assert (= var76103 temp6539_9))
(assert (= temp6539_10 #x0000000000000000))
(assert (= temp6539_11 (select ARGNAME_input_NAMEEND_DIMSIZE temp6539_10)))
(assert (= temp6539_12 #x0000000000000001))
(assert (= temp6539_13 (select ARGNAME_input_NAMEEND_DIMSIZE temp6539_12)))
(assert (= temp6539_14 #x0000000000000002))
(assert (= temp6539_15 (select ARGNAME_input_NAMEEND_DIMSIZE temp6539_14)))
(assert (= temp6539_16 #x0000000000000003))
(assert (= temp6539_17 (select ARGNAME_input_NAMEEND_DIMSIZE temp6539_16)))
(assert (= temp6539_18 #x0000000000000004))
(assert (= temp6539_19 (select ARGNAME_input_NAMEEND_DIMSIZE temp6539_18)))
(assert (= temp6539_20 #x0000000000000005))
(assert (= temp6539_21 (select ARGNAME_input_NAMEEND_DIMSIZE temp6539_20)))
(assert (= temp6539_22 #x0000000000000004))
(assert (= temp6539_23 (select ARGNAME_input_NAMEEND_DIMSIZE temp6539_22)))
(assert (= var76131 temp6539_23))
(assert (= temp6539_24 #x0000000000000000))
(assert (= temp6539_25 (select ARGNAME_out_backprop_NAMEEND_DIMSIZE temp6539_24)))
(assert (= temp6539_26 #x0000000000000001))
(assert (= temp6539_27 (select ARGNAME_out_backprop_NAMEEND_DIMSIZE temp6539_26)))
(assert (= temp6539_28 #x0000000000000002))
(assert (= temp6539_29 (select ARGNAME_out_backprop_NAMEEND_DIMSIZE temp6539_28)))
(assert (= temp6539_30 #x0000000000000003))
(assert (= temp6539_31 (select ARGNAME_out_backprop_NAMEEND_DIMSIZE temp6539_30)))
(assert (= temp6539_32 #x0000000000000004))
(assert (= temp6539_33 (select ARGNAME_out_backprop_NAMEEND_DIMSIZE temp6539_32)))
(assert (= temp6539_34 #x0000000000000005))
(assert (= temp6539_35 (select ARGNAME_out_backprop_NAMEEND_DIMSIZE temp6539_34)))
(assert (= temp6539_36 #x0000000000000004))
(assert (= temp6539_37 (select ARGNAME_out_backprop_NAMEEND_DIMSIZE temp6539_36)))
(assert (= var76165 temp6539_37))
(assert (= temp6539_38 #x0000000000000000))
(assert (= var76268
   (ite (= ARGNAME_input_NAMEEND_NUMELEMENT temp6539_38)
        #x0000000000000001
        #x0000000000000000)))
(assert (= temp6539_39 #x0000000000000000))
(assert (= var76268 temp6539_39))
(assert (= temp6539_40 #x0000000000000001))
(assert (= var341046 temp6539_40))
(assert (= temp6539_41 #x0000000000000001))
(assert (= var341064
   (ite (bvslt var341046 temp6539_41) #x0000000000000001 #x0000000000000000)))
(assert (= temp6539_42 #x0000000000000000))
(assert (= var341064 temp6539_42))
(assert (= temp6539_44 #x0000000000000000))
(assert (= temp6539_43 temp6539_44))
(assert (= temp6539_46 #x0000000000000000))
(assert (= temp6539_45 temp6539_46))
(assert (= temp6539_47 #x0000000000000001))
(assert (= var472118 temp6539_47))
(assert (= temp6539_48 #x0000000000000001))
(assert (= var472136
   (ite (bvslt var472118 temp6539_48) #x0000000000000001 #x0000000000000000)))
(assert (= temp6539_49 #x0000000000000000))
(assert (= var472136 temp6539_49))
(assert (= temp6539_51 #x0000000000000000))
(assert (= temp6539_50 temp6539_51))
(assert (= temp6539_53 #x0000000000000000))
(assert (= temp6539_52 temp6539_53))
(assert (= temp6539_54 #x0000000000000001))
(assert (= var603190 temp6539_54))
(assert (= temp6539_55 #x0000000000000001))
(assert (= var603208
   (ite (bvslt var603190 temp6539_55) #x0000000000000001 #x0000000000000000)))
(assert (= temp6539_56 #x0000000000000000))
(assert (= var603208 temp6539_56))
(assert (= temp6539_58 #x00000000000000ff))
(assert (= temp6539_57 temp6539_58))
(assert (= temp6539_60 #x00000000000000ff))
(assert (= temp6539_59 temp6539_60))
(assert (= temp6539_62 #x00000000000000ff))
(assert (= temp6539_61 temp6539_62))
(assert (= temp6539_63 #x0000000000000000))
(assert (= var795723 temp6539_63))
(assert (= var795702 var795723))
(assert (= var730134 var795702))
(assert (= temp6539_64 #x0000000000000000))
(assert (= var730134 temp6539_64))
(assert (= temp6539_65 #x0000000000000000))
(assert (= var861259 temp6539_65))
(assert (= var861238 var861259))
(assert (= var730144 var861238))
(assert (= temp6539_66 #x0000000000000000))
(assert (= var730144 temp6539_66))
(assert (= temp6539_67 #x0000000000000000))
(assert (= var926795 temp6539_67))
(assert (= var926774 var926795))
(assert (= var730147 var926774))
(assert (= temp6539_68 #x0000000000000000))
(assert (= var730147 temp6539_68))
(assert (= temp6539_69 #x0000000000008000))
(assert (= var1123378 temp6539_69))
(assert (= temp6539_70 #x0000000000040000))
(assert (= var1188914 temp6539_70))
(assert (= temp6539_71 #x0000000000200000))
(assert (= var1254450 temp6539_71))
(model-add temp6539_1 () (_ BitVec 64) #x0000000000000001)
(model-add var139826 () (_ BitVec 64) #x0000000000000001)
(model-add var139820 () (_ BitVec 64) #x0000000000000001)
(model-add temp6539_2 () (_ BitVec 64) #x0000000000000001)
(model-add var75949 () (_ BitVec 64) #x0000000000000001)
(model-del k!0)
(model-add ARGNAME_filter_sizes_NAMEEND_DIM
           ()
           (_ BitVec 64)
           (ite k!0 #x0000000000000001 (bvnot #x0000000000000001)))


